proyfinal/src/viki/013/experimentInOfficeAgust.take6.output/48b55810-24c2-4b19-9336-42692b5316d6.als.out
Reading from standard input... Use '--help' for help.
============================[ Problem Statistics ]=============================
|                                                                             |
|  Number of variables:         87638                                         |
|  Number of clauses:          161767                                         |
|  Parse time:                   0.04 s                                       |
|                                                                             |
============================[ Search Statistics ]==============================
| Conflicts |          ORIGINAL         |          LEARNT          | Progress |
|           |    Vars  Clauses Literals |    Limit  Clauses Lit/Cl |          |
===============================================================================
|       100 |   63015   107521   268821 |    39424      100     28 | 28.096 % |
|       250 |   63015   107521   268821 |    43366      250     58 | 28.096 % |
|       475 |   63015   107521   268821 |    47703      475     92 | 28.096 % |
|       812 |   63015   107521   268821 |    52473      812    117 | 28.096 % |
|      1318 |   63015   107521   268821 |    57721     1318     97 | 28.096 % |
|      2077 |   62969   107401   268551 |    63493     2072     93 | 28.149 % |
|      3216 |   62950   107217   268124 |    69842     2751     96 | 28.171 % |
|      4924 |   48010    64036   162319 |    76826     4010     80 | 45.218 % |
|      7486 |   47739    63132   160093 |    84509     6550     67 | 45.527 % |
===============================================================================
restarts              : 46
conflicts             : 10467          (6792 /sec)
decisions             : 37054          (0.00 % random) (24044 /sec)
propagations          : 17709349       (11491556 /sec)
conflict literals     : 602335         (48.47 % deleted)
Memory used           : 30.47 MB
CPU time              : 1.54107 s

UNSATISFIABLE
